NAME : morphed20-2-12
COMMENT : Generated using the function morphInstances from the R-package netgen (Bossek,2015) - Number of clusters: 2 Alpha: 0.5
TYPE : TSP
DIMENSION : 20
EDGE_WEIGHT_TYPE : EUC_2D
NODE_COORD_SECTION
1 17.2206694451 26.4336887664
2 90.3428991431 76.5393035698
3 96.8957334983 38.9277941579
4 60.5155422524 70.2238769879
5 24.89738904 20.8781629151
6 14.4934134164 30.8764731217
7 26.7268125854 45.168005432
8 55.0227044246 15.5747562025
9 16.9633311668 42.5802908005
10 18.8331698602 54.7928568457
11 37.5210787901 28.9848143999
12 88.5563038445 86.0847660241
13 63.5988421255 84.3655824774
14 66.393709342 77.7904404554
15 29.2966931514 56.9920710781
16 69.5842334772 95.9410018027
17 69.6728347498 69.1240843187
18 74.6034185596 79.3067012491
19 81.342478952 51.244707094
20 14.7490302264 38.9701815417
EOF
